100 74869

 172 38
279 27
159 740
196 319
973 797
154 432
270 453
591 513
611 714
154 274
794 122
786 557
238 327
289 443
938 647
826 495
698 621
83 545
419 740
560 706
188 535
449 679
602 874
328 433
781 413
841 765
324 583
839 72
104 893
838 31
153 749
83 759
642 954
472 55
908 597
364 428
288 331
501 91
456 563
345 480
694 105
760 613
853 738
973 768
267 906
717 410
395 954
678 866
476 297
994 160
729 436
953 402
835 576
903 584
815 750
460 510
252 105
371 859
21 310
524 972
506 118
526 959
975 92
912 232
162 47
369 706
424 851
361 435
799 929
525 591
573 631
854 846
806 297
133 355
714 906
436 901
295 977
51 902
488 128
356 824
252 410
695 991
770 473
245 554
50 530
849 322
10 76
938 896
628 803
322 140
247 777
10 626
236 410
138 255
613 860
167 701
529 548
591 610
299 92
36 474
